

******************************************************************************
This program contains Ipopt, a library for large-scale nonlinear optimization.
 Ipopt is released as open source code under the Eclipse Public License (EPL).
         For more information visit http://projects.coin-or.org/Ipopt
******************************************************************************

This is Ipopt version 3.12.8, running with linear solver mumps.
NOTE: Other linear solvers might be more efficient (see Ipopt documentation).

Number of nonzeros in equality constraint Jacobian...:        0
Number of nonzeros in inequality constraint Jacobian.:        2
Number of nonzeros in Lagrangian Hessian.............:        3

Total number of variables............................:        2
                     variables with only lower bounds:        1
                variables with lower and upper bounds:        0
                     variables with only upper bounds:        0
Total number of equality constraints.................:        0
Total number of inequality constraints...............:        1
        inequality constraints with only lower bounds:        0
   inequality constraints with lower and upper bounds:        0
        inequality constraints with only upper bounds:        1

iter    objective    inf_pr   inf_du lg(mu)  ||d||  lg(rg) alpha_du alpha_pr  ls
   0  4.9958176e-01 0.00e+00 4.59e-01  -1.0 0.00e+00    -  0.00e+00 0.00e+00   0
   1  1.3636833e-01 0.00e+00 2.00e-07  -1.7 3.86e-01    -  1.00e+00 1.00e+00f  1
   2  8.0784724e-02 0.00e+00 1.72e-01  -2.5 1.65e-01    -  4.31e-01 1.00e+00f  1
   3  3.4765853e-02 0.00e+00 2.83e-08  -2.5 3.88e-01    -  1.00e+00 1.00e+00f  1
   4  2.2574540e-02 0.00e+00 9.88e-03  -3.8 7.42e-02    -  8.81e-01 1.00e+00f  1
   5  1.7890534e-02 0.00e+00 1.50e-09  -3.8 5.60e-02    -  1.00e+00 1.00e+00f  1
   6  1.6934374e-02 0.00e+00 3.37e-05  -5.7 1.14e-02    -  9.93e-01 1.00e+00f  1
   7  1.6895408e-02 0.00e+00 1.84e-11  -5.7 4.91e-04    -  1.00e+00 1.00e+00f  1
   8  1.6893495e-02 0.00e+00 2.50e-14  -8.6 2.04e-05    -  1.00e+00 1.00e+00f  1

Number of Iterations....: 8

                                   (scaled)                 (unscaled)
Objective...............:   1.6893495448708253e-02    1.6893495448708253e-02
Dual infeasibility......:   2.5049406993105094e-14    2.5049406993105094e-14
Constraint violation....:   0.0000000000000000e+00    0.0000000000000000e+00
Complementarity.........:   2.7241630646156465e-09    2.7241630646156465e-09
Overall NLP error.......:   2.7241630646156465e-09    2.7241630646156465e-09


Number of objective function evaluations             = 9
Number of objective gradient evaluations             = 9
Number of equality constraint evaluations            = 0
Number of inequality constraint evaluations          = 9
Number of equality constraint Jacobian evaluations   = 0
Number of inequality constraint Jacobian evaluations = 9
Number of Lagrangian Hessian evaluations             = 8
Total CPU secs in IPOPT (w/o function evaluations)   =      0.003
Total CPU secs in NLP function evaluations           =      0.000

EXIT: Optimal Solution Found.
 
Ipopt 3.12.8: Optimal Solution Found
